5 6 82
4 3 1 3 2 3 3 4 3 24 45 45 61 61 69 69 79 
5 4 1 4 2 1 3 1 4 5 4 8 28 28 49 52 61 61 68 70 81 
6 5 1 1 1 1 2 2 1 2 2 2 3 10 24 28 37 37 46 46 62 62 74 74 82 
2 5 2 5 3 38 51 51 62 
7 5 1 1 1 1 1 2 1 2 1 1 3 4 3 0 10 10 18 18 28 28 36 36 46 46 52 52 58 
6 4 1 3 1 3 1 5 2 5 2 5 4 0 8 8 18 18 24 24 32 32 38 62 70 
